Route #1: 25 65 78 42 28
Route #2: 66 84 90 68
Route #3: 52 91 50
Route #4: 83 51 81
Route #5: 34 64 96 48 26 47 38
Route #6: 63 77 3
Route #7: 7 2 45 43 29 36 72 57
Route #8: 93 75
Route #9: 30 85 11 79
Route #10: 31 46 35
Route #11: 86 9 92
Route #12: 69 16 55 76
Route #13: 19 97 27
Route #14: 74 13 4
Route #15: 32 33 53 73 95 24
Route #16: 40 88 67 44
Route #17: 1 70 54
Route #18: 23 61 100
Route #19: 39 10 18
Route #20: 20 41 22 15
Route #21: 17 8
Route #22: 58 12 5
Route #23: 71 62 99 98 89
Route #24: 87 37 6 49 14
Route #25: 59 60 82
Route #26: 80 94 56 21
Cost 27591.0000
Time 16.0008